decision_x1=[0,4];
decision_x2=[0,4];
decision_x3=[0,4];
decision_x4=[0,4];
decision_x5=[0,4];
decision_x6=[0,4];
decision_x7=[0,4];
decision_x8=[0,4];
random_y1=[0,4];
random_y2=[0,4];
random_y3=[0,4];
random_y4=[0,4];
constraint_x2_x1=[
0,1,3.1|
0,2,0.39|
0,3,3.6|
0,4,0.9|
1,0,5.4|
1,2,0.89|
1,3,4.4|
1,4,7.3|
2,0,4.9|
2,1,8.7|
2,3,2.3|
2,4,5.5|
3,0,0.47|
3,1,4.2|
3,2,2.3|
3,4,6.2|
4,0,8.9|
4,1,3.1|
4,2,1.8|
4,3,8.7|
];
constraint_x3_x1=[
0,1,2|
0,2,1.5|
0,3,0.26|
0,4,4.5|
1,0,9.1|
1,2,5.3|
1,3,1.3|
1,4,10|
2,0,3.2|
2,1,3.7|
2,3,2.4|
2,4,4.4|
3,0,5.1|
3,1,6.6|
3,2,6.8|
3,4,2.6|
4,0,4.6|
4,1,2.1|
4,2,5.7|
4,3,0.92|
];
constraint_x3_x2=[
0,1,0.097|
0,2,2|
0,3,2.8|
0,4,0.23|
1,0,7.1|
1,2,1.2|
1,3,1.1|
1,4,3.8|
2,0,5.3|
2,1,9.8|
2,3,4.5|
2,4,0.56|
3,0,3.6|
3,1,6.4|
3,2,9.9|
3,4,0.7|
4,0,5.6|
4,1,4.3|
4,2,1.3|
4,3,9|
];
constraint_x4_x1=[
0,1,0.56|
0,2,8.8|
0,3,7.5|
0,4,6.4|
1,0,5|
1,2,9.3|
1,3,4.9|
1,4,4.1|
2,0,5.8|
2,1,8.9|
2,3,4|
2,4,6.6|
3,0,9.1|
3,1,4|
3,2,4.8|
3,4,8.1|
4,0,1.4|
4,1,3|
4,2,5.4|
4,3,9.2|
];
constraint_x4_x2=[
0,1,0.67|
0,2,6.6|
0,3,6.3|
0,4,9|
1,0,2.7|
1,2,6.7|
1,3,7.1|
1,4,8.1|
2,0,1.7|
2,1,6.8|
2,3,2.9|
2,4,5.6|
3,0,4.3|
3,1,0.63|
3,2,4.7|
3,4,3.6|
4,0,2.9|
4,1,0.49|
4,2,8|
4,3,8.1|
];
constraint_x5_x1=[
0,1,3|
0,2,5.5|
0,3,6.6|
0,4,3.4|
1,0,4.2|
1,2,7.7|
1,3,1.6|
1,4,4.6|
2,0,3.2|
2,1,7.8|
2,3,8.3|
2,4,1.1|
3,0,5.6|
3,1,4.9|
3,2,4.1|
3,4,2.8|
4,0,8.4|
4,1,3.9|
4,2,2.4|
4,3,6.4|
];
constraint_x5_x2=[
0,1,0.69|
0,2,4.3|
0,3,2.1|
0,4,0.31|
1,0,6.9|
1,2,2.3|
1,3,8.4|
1,4,1.5|
2,0,5.8|
2,1,3.7|
2,3,3.7|
2,4,1.3|
3,0,9.3|
3,1,3.2|
3,2,6.4|
3,4,7.7|
4,0,9.5|
4,1,3.1|
4,2,6.3|
4,3,7.5|
];
constraint_x5_x4=[
0,1,6.5|
0,2,0.076|
0,3,9|
0,4,4.1|
1,0,2|
1,2,4.4|
1,3,6.6|
1,4,0.064|
2,0,1.3|
2,1,1.4|
2,3,9.1|
2,4,8.7|
3,0,7.6|
3,1,8.7|
3,2,7.5|
3,4,4|
4,0,5.5|
4,1,1.6|
4,2,6.8|
4,3,2.6|
];
constraint_x6_x2=[
0,1,6.3|
0,2,4.8|
0,3,7.3|
0,4,1.4|
1,0,9.8|
1,2,4.1|
1,3,0.67|
1,4,6.2|
2,0,5.5|
2,1,3.3|
2,3,9.9|
2,4,2.4|
3,0,4.8|
3,1,1.2|
3,2,9.5|
3,4,4.6|
4,0,0.28|
4,1,7.8|
4,2,9.3|
4,3,7|
];
constraint_x6_x3=[
0,1,5.1|
0,2,9|
0,3,1.4|
0,4,9.7|
1,0,6.6|
1,2,4.8|
1,3,9.3|
1,4,5.2|
2,0,6.8|
2,1,1.8|
2,3,5.5|
2,4,4.8|
3,0,9.2|
3,1,5.1|
3,2,6.5|
3,4,7.7|
4,0,6.7|
4,1,6.9|
4,2,6.5|
4,3,6.9|
];
constraint_x7_x1=[
0,1,8|
0,2,8.5|
0,3,4.1|
0,4,3.2|
1,0,1.5|
1,2,7|
1,3,6.6|
1,4,4.3|
2,0,0.55|
2,1,5|
2,3,2.6|
2,4,2.4|
3,0,3.6|
3,1,4.1|
3,2,8.1|
3,4,2.3|
4,0,0.41|
4,1,2.5|
4,2,0.87|
4,3,2.7|
];
constraint_x8_x2=[
0,1,2.5|
0,2,4|
0,3,7.6|
0,4,2.7|
1,0,6.4|
1,2,3.9|
1,3,6.3|
1,4,4.3|
2,0,3.9|
2,1,4.5|
2,3,10|
2,4,5.9|
3,0,7.4|
3,1,4|
3,2,5.4|
3,4,3.1|
4,0,3.9|
4,1,8|
4,2,2.1|
4,3,7.4|
];
constraint_x8_x3=[
0,1,1|
0,2,9.8|
0,3,1.9|
0,4,9.9|
1,0,4.6|
1,2,2.4|
1,3,9.4|
1,4,1.5|
2,0,7.5|
2,1,0.21|
2,3,3.8|
2,4,7.6|
3,0,5.5|
3,1,4.6|
3,2,2.5|
3,4,0.72|
4,0,5.8|
4,1,1.5|
4,2,4.2|
4,3,7.2|
];
constraint_x8_x4=[
0,1,1.6|
0,2,5.2|
0,3,8.9|
0,4,8.2|
1,0,6.6|
1,2,1.3|
1,3,1.1|
1,4,3.6|
2,0,7.3|
2,1,6.9|
2,3,7|
2,4,5.8|
3,0,10|
3,1,3.1|
3,2,9.2|
3,4,9.7|
4,0,7.1|
4,1,7.3|
4,2,6.3|
4,3,2.1|
];
constraint_x1_y1=[
0,0,7.1|
0,1,4.2|
0,2,6.9|
0,3,6|
0,4,7.6|
1,0,8.4|
1,1,3.3|
1,2,8.9|
1,3,2.9|
1,4,4|
2,0,7.8|
2,1,7.6|
2,2,3.3|
2,3,3.6|
2,4,9.7|
3,0,8.3|
3,1,5.6|
3,2,8.2|
3,3,2.4|
3,4,5.4|
4,0,0.51|
4,1,3.2|
4,2,1|
4,3,4.9|
4,4,1.7|
];
constraint_x2_y2=[
0,0,8.1|
0,1,5.5|
0,2,1.6|
0,3,3.5|
0,4,1.5|
1,0,8.7|
1,1,5.3|
1,2,8|
1,3,6.3|
1,4,0.85|
2,0,2.2|
2,1,7|
2,2,10|
2,3,9.4|
2,4,0.16|
3,0,9.2|
3,1,4.7|
3,2,6|
3,3,9.4|
3,4,9.9|
4,0,9.5|
4,1,3.5|
4,2,4.3|
4,3,9.4|
4,4,1.7|
];
constraint_x3_y3=[
0,0,6.3|
0,1,9.7|
0,2,6.7|
0,3,2.3|
0,4,3.8|
1,0,6.7|
1,1,9.6|
1,2,8.5|
1,3,1.8|
1,4,1.7|
2,0,7.2|
2,1,7.7|
2,2,6.1|
2,3,8.4|
2,4,9.9|
3,0,7|
3,1,5|
3,2,7.2|
3,3,9.3|
3,4,5.6|
4,0,2.5|
4,1,4.9|
4,2,1.9|
4,3,6.8|
4,4,7.5|
];
constraint_x4_y4=[
0,0,1.9|
0,1,7|
0,2,10|
0,3,8.8|
0,4,3.6|
1,0,5.9|
1,1,3.2|
1,2,2.3|
1,3,0.35|
1,4,9.3|
2,0,9.6|
2,1,0.14|
2,2,8.7|
2,3,6.8|
2,4,8.4|
3,0,8.4|
3,1,2.7|
3,2,1.4|
3,3,2.5|
3,4,8.3|
4,0,6.7|
4,1,9.6|
4,2,9.7|
4,3,8.1|
4,4,6.4|
];
initial_distribution_y1=[0.25,0.11,0.28,0.1,0.25];
initial_distribution_y2=[0.32,0.29,0.019,0.14,0.24];
initial_distribution_y3=[0.17,0.037,0.32,0.27,0.21];
initial_distribution_y4=[0.027,0.24,0.29,0.11,0.34];
transition_y1=[
0.079,0.16,0.27,0.27,0.22|
0.26,0.097,0.22,0.16,0.26|
0.023,0.21,0.36,0.068,0.33|
0.23,0.093,0.13,0.25,0.3|
0.29,0.13,0.21,0.18,0.19|
];
transition_y2=[
0.063,0.15,0.17,0.098,0.52|
0.11,0.34,0.11,0.085,0.36|
0.34,0.14,0.2,0.049,0.27|
0.051,0.41,0.092,0.14,0.3|
0.33,0.28,0.24,0.091,0.055|
];
transition_y3=[
0.053,0.23,0.31,0.36,0.043|
0.22,0.35,0.093,0.33,0.0065|
0.23,0.074,0.29,0.081,0.33|
0.038,0.29,0.33,0.17,0.17|
0.084,0.069,0.31,0.49,0.041|
];
transition_y4=[
0.26,0.27,0.017,0.34,0.12|
0.35,0.21,0.059,0.18,0.19|
0.15,0.16,0.22,0.3,0.16|
0.067,0.24,0.068,0.35,0.27|
0.25,0.35,0.16,0.11,0.13|
];
